Traveling Salesman Problem/TSP_generados/Aleatorio1621103286_8.tsp
NAME: Aleatorio1621103286_8.tsp
COMMENT: Randomly generated scenario
TYPE: TSP
DIMENSION: 8
EDGE_WEIGHT_TYPE: ATT
NODE_COORD_SECTION
1 16.46 32.98
2 8.17 10.98
3 5.7 33.47
4 26.23 30.59
5 9.83 44.72
6 27.12 33.1
7 25.53 4.25
8 38.59 49.21
