Traveling Salesman Problem/TSP_generados/Aleatorio1621103286_8.opt.tour
NAME: Aleatorio1621103286_8.opt.tour
COMMENT: Optimal solution for Aleatorio1621103286_8 (142.78111055291558)
TYPE: TOUR
DIMENSION: 8
TOUR_SECTION
1 2 7 4 6 8 5 3
-1
EOF
